Route #1: 4 45 29 5 48 30
Route #2: 27 52 8 46 34 26
Route #3: 12 58 10 38 11
Route #4: 7 53 14 59 19 35
Route #5: 54 13 57 15 37 20 60 36 47
Route #6: 21 61 28 62 43 1
Route #7: 22 64 42 41 56 23 63 16
Route #8: 44 3 49 24 18 55 50 32
Route #9: 39 31 25 9 40
Route #10: 17 51 6 33 2
Cost 843